# Solution for model count
# Objective value = 10
z#1 1
z#2 0
z#3 0
z#4 0
z#5 0
z#6 0
z#7 1
z#8 1
z#9 1
z#10 0
z#11 1
z#12 0
z#13 1
z#14 0
z#15 1
z#16 1
z#17 0
z#18 0
z#19 0
z#20 0
z#21 0
z#22 0
z#23 1
z#24 1
x#24 691
x#23 408
x#22 0
x#21 0
x#20 0
x#19 0
x#18 0
x#17 0
x#16 239
x#15 546
x#14 0
x#13 2520
x#12 0
x#11 562
x#10 0
x#9 563
x#8 1440
x#7 892
x#6 0
x#5 0
x#4 0
x#3 0
x#2 0
x#1 2139
